1126630
5,40,74,17,68,61,30,59,31,0,69,73,98,67,12,48,43,52,7,84,88,2,63,4,1,26,34,41,96,90,54,71,49,87,35,86,75,44,47,36,8,32,56,46,94,72,24,11,93,16,50,77,28,78,39,25,18,58,89,70,33,10,27,45,97,53,22,64,51,23,42,91,6,65,3,38,80,21,83,13,85,81,57,15,66,60,14,82,37,79,62,92,95,19,29,76,20,9,55